
Gurobi 13.0.2 (win64) logging started Fri Jul 24 06:16:31 2026

Set parameter LogFile to value "E:\codes\ExactEBRP\results\gf_c0_mechanism_transfer_c5_round30\runs\stage1__high_imbalance_seed3202__c5_candidate__300s\external\native_logs\L1.1.1.1.1.0.1_lp.gurobi.log"
Gurobi Optimizer version 13.0.2 build v13.0.2rc1 (win64 - Windows 10.0 (19045.2))

CPU model: 12th Gen Intel(R) Core(TM) i7-12700KF, instruction set [SSE2|AVX|AVX2]
Thread count: 12 physical cores, 20 logical processors, using up to 1 threads

Non-default parameters:
TimeLimit  86.2110183
MIPGap  0
MIPGapAbs  0
LogToConsole  0
Threads  1

Optimize a model with 11895 rows, 3372 columns and 67322 nonzeros (Min)
Model fingerprint: 0x6457e00d
Model has 21 linear objective coefficients
Coefficient statistics:
  Matrix range     [1e-02, 2e+04]
  Objective range  [1e-02, 1e+00]
  Bounds range     [5e-01, 2e+03]
  RHS range        [5e-01, 5e+04]

Presolve removed 1946 rows and 108 columns
Presolve time: 0.03s
Presolved: 9949 rows, 3265 columns, 51750 nonzeros

Iteration    Objective       Primal Inf.    Dual Inf.      Time
       0    1.0530820e+00   8.688856e+02   0.000000e+00      0s
    3138    1.7398245e+00   0.000000e+00   0.000000e+00      0s

Solved in 3138 iterations and 0.22 seconds (0.64 work units)
Optimal objective  1.739824489e+00

User-callback calls 3283, time in user-callback 0.00 sec
